100
32
14
20
28
31
29
29
25
5
30
21
6
7
7
17
3
17
3
8
1
5
2
5
1
1
2
1
18
3
1
1
2
1
19
2
4
1
1
2
2
18
2
3
2
4
1
1
2
2
18
1
2
1
2
1
1
7
1
3
17
3
2
1
1
1
1
1
1
1
17
1
4
1
4
1
17
1
1
2
1
17
1
4
2
1
3
3
4
1
3
1
1
2
1
22
9
1
2
1
2
1